/*********************************************
 * OPL 12.6.0.0 Data
 * Author: Adrian Rodriguez Bazaga, Pau Rodriguez Esmerats
 * Creation Date: 06/12/2017 at 23:02:57
 *********************************************/

nNurses=156;
maxConsec=2;
maxPresence=7;
maxHours=5;
minHours=1;
hours=24;
demand= [25 16 37 35 16 37 35 16 23 11 6 3 8 4 8 4 4 3 2 1 18 49 31 36  ];
